nNurses = 191;
nHours = 35;
minHours = 8;
maxHours = 10;
maxConsec = 10;
maxPresence = 21;
demand = [25, 26, 30, 28, 25, 28, 24, 26, 23, 22, 23, 18, 17, 12, 7, 12, 16, 15, 11, 9, 7, 8, 13, 10, 14, 9, 6, 9, 6, 8, 13, 14, 16, 20, 18];
